c File: instances/14_0.05_1.col
c
c Description: Random graph of size 14 vertices and P(0.05) of edges between any two vertices.
p col 14 91
e 1 9
e 2 6
e 2 7
e 2 11
e 5 9
e 6 7
e 6 8
e 6 12
e 7 12
e 8 10
e 8 11
e 11 12